
******************************************************************************
This program contains Ipopt, a library for large-scale nonlinear optimization.
 Ipopt is released as open source code under the Eclipse Public License (EPL).
         For more information visit https://github.com/coin-or/Ipopt
******************************************************************************

This is Ipopt version 3.14.19, running with linear solver MUMPS 5.8.1.

Number of nonzeros in equality constraint Jacobian...:     4389
Number of nonzeros in inequality constraint Jacobian.:        0
Number of nonzeros in Lagrangian Hessian.............:     1050

Total number of variables............................:     1287
                     variables with only lower bounds:        0
                variables with lower and upper bounds:      457
                     variables with only upper bounds:        0
Total number of equality constraints.................:     1274
Total number of inequality constraints...............:        0
        inequality constraints with only lower bounds:        0
   inequality constraints with lower and upper bounds:        0
        inequality constraints with only upper bounds:        0

iter    objective    inf_pr   inf_du lg(mu)  ||d||  lg(rg) alpha_du alpha_pr  ls
   0  9.8591146e+00 9.90e+01 1.08e-03  -1.0 0.00e+00    -  0.00e+00 0.00e+00   0
   1  9.8516506e+00 7.08e-01 2.43e+01  -1.0 9.85e+01    -  3.83e-02 1.00e+00h  1
   2  9.8520142e+00 1.64e-02 3.24e-01  -1.0 5.90e-01    -  9.31e-01 1.00e+00h  1
   3  9.8593124e+00 1.35e-01 2.95e+00  -1.0 2.61e+00    -  6.18e-01 1.00e+00f  1
   4  9.8682511e+00 7.91e-02 1.07e+00  -1.0 4.02e+00    -  8.44e-01 7.15e-01f  1
   5  9.8731447e+00 2.82e-01 3.80e-03  -1.0 1.56e+00    -  1.00e+00 1.00e+00f  1
   6  9.8622216e+00 5.99e-01 2.27e-03  -1.7 1.11e+00    -  1.00e+00 1.00e+00h  1
   7  9.8634653e+00 4.79e-02 1.68e-04  -1.7 7.61e-01    -  1.00e+00 1.00e+00h  1
   8  9.8629181e+00 9.12e-02 1.27e-04  -2.5 6.76e-01    -  1.00e+00 1.00e+00h  1
   9  9.8625714e+00 3.80e-04 4.92e-06  -2.5 1.31e-01    -  1.00e+00 1.00e+00h  1
iter    objective    inf_pr   inf_du lg(mu)  ||d||  lg(rg) alpha_du alpha_pr  ls
  10  9.8619511e+00 3.21e-03 1.08e-02  -3.8 2.40e-01    -  8.20e-01 1.00e+00h  1
  11  9.8528151e+00 2.45e-03 3.58e-03  -3.8 3.67e+00    -  4.04e-01 1.00e+00h  1
  12  9.8514035e+00 7.94e-05 1.00e-04  -3.8 7.69e-01    -  1.00e+00 1.00e+00h  1
  13  9.8480982e+00 3.74e-04 5.30e-04  -5.7 1.51e+00    -  7.93e-01 1.00e+00h  1
  14  9.8479303e+00 5.77e-05 4.29e-04  -5.7 1.16e-01    -  1.00e+00 8.49e-01h  1
  15  9.8479267e+00 3.18e-05 9.91e-03  -5.7 5.41e-01    -  7.12e-01 4.49e-01f  2
  16  9.8479125e+00 9.53e-09 1.10e-08  -5.7 1.41e-01    -  1.00e+00 1.00e+00h  1
  17  9.8478976e+00 1.36e-08 1.39e-02  -8.6 2.38e-01    -  7.72e-01 4.36e-01h  1
  18  9.8478968e+00 7.52e-09 5.67e-02  -8.6 8.31e-04    -  1.00e+00 4.49e-01h  1
  19  9.8478968e+00 5.56e-11 4.80e-14  -8.6 1.95e-05    -  1.00e+00 1.00e+00f  1

Number of Iterations....: 19

                                   (scaled)                 (unscaled)
Objective...............:   9.8478968137013183e+00    9.8478968137013183e+00
Dual infeasibility......:   4.7987438675511918e-14    4.7987438675511918e-14
Constraint violation....:   5.5552007438569959e-11    5.5552007438569959e-11
Variable bound violation:   0.0000000000000000e+00    0.0000000000000000e+00
Complementarity.........:   2.5722183394754571e-09    2.5722183394754571e-09
Overall NLP error.......:   2.5722183394754571e-09    2.5722183394754571e-09


Number of objective function evaluations             = 21
Number of objective gradient evaluations             = 20
Number of equality constraint evaluations            = 21
Number of inequality constraint evaluations          = 0
Number of equality constraint Jacobian evaluations   = 20
Number of inequality constraint Jacobian evaluations = 0
Number of Lagrangian Hessian evaluations             = 19
Total seconds in IPOPT                               = 0.078

EXIT: Optimal Solution Found.
